
m = 10;

n = 10;

Amin = 40;

Amax = 50;

B = 1920;

lambda = 20.00;

c = 
[[3,9,2,9,7,9,3,5,8,3],
[7,6,7,9,7,6,8,2,9,3],
[10,10,8,8,10,10,10,6,3,3],
[7,2,2,5,7,5,3,9,6,9],
[8,2,2,4,7,6,7,4,4,5],
[4,3,3,10,10,2,7,7,6,6],
[8,2,7,8,4,10,9,5,6,4],
[2,2,2,2,4,8,4,7,8,7],
[9,8,8,10,7,5,8,4,10,3],
[8,8,10,2,3,3,9,2,5,4]];
